c turning on binary mode checking
c parsing input formula with 259840 variables and 1039934 clauses
c finished parsing, read 23551502 bytes from proof file
c detected empty clause; start verification via backward checking
c 12235 of 1039934 clauses in core                            
c 15854 of 607063 lemmas in core using 100988 resolution steps
c 0 RAT lemmas in core; 988 redundant literals in core lemmas
s VERIFIED
c verification time: 2.794 seconds
